data/solutions/recovery/degenerate/intermediate/binding/degenerate_intermediate_instance38/46.sol
Elapsed time: 0.38
Upper bound: 295080.0
Planning weighted value: 15448611813.0
C[0]=295080.0
C[1]=294973.0
C[2]=294897.0
C[3]=293874.0
C[4]=293524.0
C[5]=293122.0
C[6]=292926.0
C[7]=292311.0
C[8]=290373.0
C[9]=290034.0
C[10]=289747.0
C[11]=282475.0
C[12]=281082.0
C[13]=0.0
C[14]=0.0
C[15]=0.0
y[0]=2
y[1]=8
y[2]=9
y[3]=11
y[4]=1
y[5]=6
y[6]=0
y[7]=7
y[8]=11
y[9]=3
y[10]=4
y[11]=8
y[12]=10
y[13]=1
y[14]=3
y[15]=5
y[16]=2
y[17]=0
y[18]=4
y[19]=9
y[20]=10
y[21]=3
y[22]=4
y[23]=0
y[24]=10
y[25]=8
y[26]=11
y[27]=7
y[28]=9
y[29]=12
y[30]=0
y[31]=2
y[32]=5
y[33]=4
y[34]=4
y[35]=12
y[36]=5
y[37]=1
y[38]=10
y[39]=7
y[40]=6
y[41]=6
y[42]=1
y[43]=11
y[44]=1
y[45]=8
y[46]=6
y[47]=8
y[48]=9
y[49]=4
y[50]=6
y[51]=3
y[52]=0
y[53]=11
y[54]=10
y[55]=12
y[56]=5
y[57]=7
y[58]=10
y[59]=3
y[60]=11
y[61]=12
y[62]=5
y[63]=9
y[64]=1
y[65]=2
